(set-logic ALL)
(declare-const a_random97_0 String)
(declare-fun seed0_sigmaStar_0 () String)
(declare-fun seed0_literal_5 () String)
(declare-fun seed0_x_4 () String)
(declare-fun seed0_literal_2 () String)
(declare-fun seed0_literal_3 () String)
(declare-fun seed0_x_6 () String)
(declare-fun seed0_literal_7 () String)
(declare-fun seed0_x_9 () String)
(declare-fun seed0_x_10 () String)
(declare-fun seed0_literal_11 () String)
(declare-fun seed0_x_12 () String)
(assert (and (and (= seed0_literal_5 "\u{2f}") (str.<= (str.++ seed0_x_9 seed0_literal_7) (str.++ seed0_x_9 seed0_x_9))) (and (= seed0_literal_2 "\u{77}\u{64}\u{69}\u{72}") (str.<= (str.++ seed0_literal_3 seed0_sigmaStar_0) (str.++ seed0_x_6 seed0_x_12))) (and (= seed0_literal_3 "\u{2f}") (or (str.prefixof (str.++ seed0_x_12 seed0_x_12) (str.++ seed0_x_4 seed0_x_6)) (str.<= (str.++ seed0_x_9 seed0_literal_2) (str.++ seed0_literal_11 seed0_literal_2)))) (and (or (= seed0_x_4 seed0_literal_2) (= seed0_x_4 seed0_literal_3)) (and (str.<= (str.++ seed0_literal_5 seed0_x_12) (str.++ seed0_literal_2 seed0_literal_2)) (str.contains (str.++ seed0_literal_2 seed0_x_12) (str.++ seed0_x_6 seed0_literal_11)))) (and (and (str.suffixof seed0_x_6 a_random97_0) (str.prefixof seed0_x_6 a_random97_0) (str.suffixof (str.++ seed0_literal_5 seed0_x_4) a_random97_0) (str.prefixof (str.++ seed0_literal_5 seed0_x_4) a_random97_0)) (or (str.contains (str.++ seed0_literal_3 seed0_x_6) (str.++ seed0_literal_2 seed0_sigmaStar_0)) (str.< (str.++ seed0_x_4 seed0_literal_11) (str.++ seed0_x_12 seed0_x_10)))) (and (= seed0_literal_7 "\u{20}\u{3c}\u{69}\u{6e}\u{70}\u{75}\u{74}\u{20}\u{74}\u{79}\u{70}\u{65}\u{3d}\u{5c}\u{22}\u{68}\u{69}\u{64}\u{64}\u{65}\u{6e}\u{5c}\u{22}\u{20}\u{6e}\u{61}\u{6d}\u{65}\u{3d}\u{5c}\u{22}\u{77}\u{64}\u{69}\u{72}\u{5c}\u{22}\u{20}\u{76}\u{61}\u{6c}\u{75}\u{65}\u{3d}\u{5c}\u{22}") (xor (str.contains (str.++ seed0_x_10 seed0_sigmaStar_0) (str.++ seed0_x_4 seed0_literal_5)) (str.suffixof (str.++ seed0_literal_11 seed0_literal_7) (str.++ seed0_sigmaStar_0 seed0_literal_7)))) (and (or (= seed0_x_9 seed0_literal_2) (= seed0_x_9 seed0_literal_3) (= seed0_x_9 seed0_x_6)) (=> (str.< (str.++ seed0_literal_11 seed0_x_12) (str.++ seed0_literal_3 seed0_x_6)) (str.contains (str.++ seed0_literal_2 seed0_x_6) (str.++ seed0_literal_7 seed0_literal_11)))) (and (= seed0_x_10 (str.++ seed0_literal_7 seed0_x_9)) (=> (str.prefixof (str.++ seed0_x_10 seed0_x_12) (str.++ seed0_x_4 seed0_x_6)) (str.contains (str.++ seed0_literal_5 seed0_literal_5) (str.++ seed0_literal_3 seed0_literal_11)))) (and (= seed0_literal_11 "\u{5c}\u{22}\u{20}\u{2f}\u{3e}") (=> (str.< (str.++ seed0_literal_2 seed0_literal_2) (str.++ seed0_x_6 seed0_literal_7)) (str.suffixof (str.++ seed0_x_12 seed0_literal_2) (str.++ seed0_literal_2 seed0_x_10)))) (and (= seed0_x_12 (str.++ seed0_x_10 seed0_literal_11)) (str.< (str.++ seed0_literal_7 seed0_literal_2) (str.++ seed0_literal_5 seed0_literal_2))) (and (str.in_re seed0_x_12 (re.++ (re.* re.allchar ) (re.++ (str.to_re "\u{5c}\u{3c}\u{53}\u{43}\u{52}\u{49}\u{50}\u{54}") (re.* re.allchar )))) (xor (str.< (str.++ seed0_x_12 seed0_x_10) (str.++ seed0_x_9 seed0_x_9)) (str.prefixof (str.++ seed0_x_6 seed0_literal_3) (str.++ seed0_literal_3 seed0_x_10))))))
(check-sat)
(exit)